sat
(:max-memory         18.24
 :memory             18.06
 :nlsat-propagations 7
 :nlsat-stages       4
 :num-allocs         7378
 :rlimit-count       7694
 :time               0.00
 :total-time         0.01)
